c Qdimacs file from skolem function generator
p cnf 655 1913
a 464 465 467 468 469 470 471 472 473 474 475 476 477 478 479 480 481 482 483 484 485 486 487 488 489 490 491 492 493 494 495 496 497 498 499 500 501 502 503 504 505 506 507 508 509 510 511 512 513 514 515 516 517 518 519 520 521 522 523 524 525 526 527 528 529 530 531 532 533 534 535 536 537 538 539 540 541 542 543 544 545 546 547 548 549 550 551 552 553 554 555 556 557 558 559 560 561 562 563 564 565 566 567 568 569 570 571 572 573 574 575 576 577 578 579 580 581 582 583 584 585 586 587 588 589 590 591 592 0
e 466 593 594 595 596 597 598 599 600 601 602 603 604 605 606 607 608 609 610 611 612 613 614 615 616 617 618 619 620 621 622 623 624 625 626 627 628 629 630 631 632 633 634 635 636 637 638 639 640 641 642 643 644 645 646 647 648 649 650 651 652 653 654 1 2 3 4 5 6 7 8 9 10 11 12 13 14 15 16 17 18 19 20 21 22 23 24 25 26 27 28 29 30 31 32 33 34 35 36 37 38 39 40 41 42 43 44 45 46 47 48 49 50 51 52 53 54 55 56 57 58 59 60 61 62 63 64 65 66 67 68 69 70 71 72 73 74 75 76 77 78 79 80 81 82 83 84 85 86 87 88 89 90 91 92 93 94 95 96 97 98 99 100 101 102 103 104 105 106 107 108 109 110 111 112 113 114 115 116 117 118 119 120 121 122 123 124 125 126 127 128 129 130 131 132 133 134 135 136 137 138 139 140 141 142 143 144 145 146 147 148 149 150 151 152 153 154 155 156 157 158 159 160 161 162 163 164 165 166 167 168 169 170 171 172 173 174 175 176 177 178 179 180 181 182 183 184 185 186 187 188 189 190 191 192 193 194 195 196 197 198 199 200 201 202 203 204 205 206 207 208 209 210 211 212 213 214 215 216 217 218 219 220 221 222 223 224 225 226 227 228 229 230 231 232 233 234 235 236 237 238 239 240 241 242 243 244 245 246 247 248 249 250 251 252 253 254 255 256 257 258 259 260 261 262 263 264 265 266 267 268 269 270 271 272 273 274 275 276 277 278 279 280 281 282 283 284 285 286 287 288 289 290 291 292 293 294 295 296 297 298 299 300 301 302 303 304 305 306 307 308 309 310 311 312 313 314 315 316 317 318 319 320 321 322 323 324 325 326 327 328 329 330 331 332 333 334 335 336 337 338 339 340 341 342 343 344 345 346 347 348 349 350 351 352 353 354 355 356 357 358 359 360 361 362 363 364 365 366 367 368 369 370 371 372 373 374 375 376 377 378 379 380 381 382 383 384 385 386 387 388 389 390 391 392 393 394 395 396 397 398 399 400 401 402 403 404 405 406 407 408 409 410 411 412 413 414 415 416 417 418 419 420 421 422 423 424 425 426 427 428 429 430 431 432 433 434 435 436 437 438 439 440 441 442 443 444 445 446 447 448 449 450 451 452 453 454 455 456 457 458 459 460 461 462 463 655 0
4 318 443 0
4 5 313 443 0
4 -5 -313 443 0
-4 -443 0
-4 5 -313 -318 0
-4 -5 313 -318 0
5 -6 -139 0
-5 6 0
-5 139 0
6 -7 -138 0
6 7 138 0
-6 7 -138 0
-6 -7 138 0
7 469 8 0
7 470 8 0
-7 -8 0
-7 -469 -470 0
8 469 -470 9 0
8 -469 470 9 0
-8 -9 0
-8 469 470 0
-8 -469 -470 0
9 471 10 0
9 472 10 0
-9 -10 0
-9 -471 -472 0
10 11 -137 0
-10 -11 0
-10 137 0
11 473 12 0
11 474 12 0
-11 -12 0
-11 -473 -474 0
12 473 -474 13 0
12 -473 474 13 0
-12 -13 0
-12 473 474 0
-12 -473 -474 0
13 475 14 0
13 476 14 0
-13 -14 0
-13 -475 -476 0
14 475 -476 15 0
14 -475 476 15 0
-14 -15 0
-14 475 476 0
-14 -475 -476 0
15 477 16 0
15 478 16 0
-15 -16 0
-15 -477 -478 0
16 477 -478 17 0
16 -477 478 17 0
-16 -17 0
-16 477 478 0
-16 -477 -478 0
17 479 18 0
17 480 18 0
-17 -18 0
-17 -479 -480 0
18 479 -480 19 0
18 -479 480 19 0
-18 -19 0
-18 479 480 0
-18 -479 -480 0
19 481 20 0
19 482 20 0
-19 -20 0
-19 -481 -482 0
20 481 -482 21 0
20 -481 482 21 0
-20 -21 0
-20 481 482 0
-20 -481 -482 0
21 483 22 0
21 484 22 0
-21 -22 0
-21 -483 -484 0
22 483 -484 23 0
22 -483 484 23 0
-22 -23 0
-22 483 484 0
-22 -483 -484 0
23 485 24 0
23 486 24 0
-23 -24 0
-23 -485 -486 0
24 485 -486 25 0
24 -485 486 25 0
-24 -25 0
-24 485 486 0
-24 -485 -486 0
25 487 26 0
25 488 26 0
-25 -26 0
-25 -487 -488 0
26 487 -488 27 0
26 -487 488 27 0
-26 -27 0
-26 487 488 0
-26 -487 -488 0
27 489 28 0
27 490 28 0
-27 -28 0
-27 -489 -490 0
28 489 -490 29 0
28 -489 490 29 0
-28 -29 0
-28 489 490 0
-28 -489 -490 0
29 491 30 0
29 492 30 0
-29 -30 0
-29 -491 -492 0
30 31 -136 0
-30 -31 0
-30 136 0
31 493 32 0
31 494 32 0
-31 -32 0
-31 -493 -494 0
32 493 -494 33 0
32 -493 494 33 0
-32 -33 0
-32 493 494 0
-32 -493 -494 0
33 495 34 0
33 496 34 0
-33 -34 0
-33 -495 -496 0
34 495 -496 35 0
34 -495 496 35 0
-34 -35 0
-34 495 496 0
-34 -495 -496 0
35 497 36 0
35 498 36 0
-35 -36 0
-35 -497 -498 0
36 497 -498 37 0
36 -497 498 37 0
-36 -37 0
-36 497 498 0
-36 -497 -498 0
37 499 38 0
37 500 38 0
-37 -38 0
-37 -499 -500 0
38 499 -500 39 0
38 -499 500 39 0
-38 -39 0
-38 499 500 0
-38 -499 -500 0
39 501 40 0
39 502 40 0
-39 -40 0
-39 -501 -502 0
40 501 -502 41 0
40 -501 502 41 0
-40 -41 0
-40 501 502 0
-40 -501 -502 0
41 503 42 0
41 504 42 0
-41 -42 0
-41 -503 -504 0
42 43 -135 0
-42 -43 0
-42 135 0
43 505 44 0
43 506 44 0
-43 -44 0
-43 -505 -506 0
44 505 -506 45 0
44 -505 506 45 0
-44 -45 0
-44 505 506 0
-44 -505 -506 0
45 507 46 0
45 508 46 0
-45 -46 0
-45 -507 -508 0
46 507 -508 47 0
46 -507 508 47 0
-46 -47 0
-46 507 508 0
-46 -507 -508 0
47 509 48 0
47 510 48 0
-47 -48 0
-47 -509 -510 0
48 509 -510 49 0
48 -509 510 49 0
-48 -49 0
-48 509 510 0
-48 -509 -510 0
49 511 50 0
49 512 50 0
-49 -50 0
-49 -511 -512 0
50 511 -512 51 0
50 -511 512 51 0
-50 -51 0
-50 511 512 0
-50 -511 -512 0
51 513 52 0
51 514 52 0
-51 -52 0
-51 -513 -514 0
52 513 -514 53 0
52 -513 514 53 0
-52 -53 0
-52 513 514 0
-52 -513 -514 0
53 515 54 0
53 516 54 0
-53 -54 0
-53 -515 -516 0
54 515 -516 55 0
54 -515 516 55 0
-54 -55 0
-54 515 516 0
-54 -515 -516 0
55 517 56 0
55 518 56 0
-55 -56 0
-55 -517 -518 0
56 517 -518 57 0
56 -517 518 57 0
-56 -57 0
-56 517 518 0
-56 -517 -518 0
57 519 58 0
57 520 58 0
-57 -58 0
-57 -519 -520 0
58 519 -520 59 0
58 -519 520 59 0
-58 -59 0
-58 519 520 0
-58 -519 -520 0
59 521 60 0
59 522 60 0
-59 -60 0
-59 -521 -522 0
60 521 -522 61 0
60 -521 522 61 0
-60 -61 0
-60 521 522 0
-60 -521 -522 0
61 523 62 0
61 524 62 0
-61 -62 0
-61 -523 -524 0
62 63 -134 0
-62 -63 0
-62 134 0
63 525 64 0
63 526 64 0
-63 -64 0
-63 -525 -526 0
64 525 -526 65 0
64 -525 526 65 0
-64 -65 0
-64 525 526 0
-64 -525 -526 0
65 527 66 0
65 528 66 0
-65 -66 0
-65 -527 -528 0
66 527 -528 67 0
66 -527 528 67 0
-66 -67 0
-66 527 528 0
-66 -527 -528 0
67 529 68 0
67 530 68 0
-67 -68 0
-67 -529 -530 0
68 529 -530 69 0
68 -529 530 69 0
-68 -69 0
-68 529 530 0
-68 -529 -530 0
69 531 70 0
69 532 70 0
-69 -70 0
-69 -531 -532 0
70 531 -532 71 0
70 -531 532 71 0
-70 -71 0
-70 531 532 0
-70 -531 -532 0
71 533 72 0
71 534 72 0
-71 -72 0
-71 -533 -534 0
72 533 -534 73 0
72 -533 534 73 0
-72 -73 0
-72 533 534 0
-72 -533 -534 0
73 535 74 0
73 536 74 0
-73 -74 0
-73 -535 -536 0
74 75 -133 0
-74 -75 0
-74 133 0
75 537 76 0
75 538 76 0
-75 -76 0
-75 -537 -538 0
76 537 -538 77 0
76 -537 538 77 0
-76 -77 0
-76 537 538 0
-76 -537 -538 0
77 539 78 0
77 540 78 0
-77 -78 0
-77 -539 -540 0
78 539 -540 79 0
78 -539 540 79 0
-78 -79 0
-78 539 540 0
-78 -539 -540 0
79 541 80 0
79 542 80 0
-79 -80 0
-79 -541 -542 0
80 541 -542 81 0
80 -541 542 81 0
-80 -81 0
-80 541 542 0
-80 -541 -542 0
81 543 82 0
81 544 82 0
-81 -82 0
-81 -543 -544 0
82 543 -544 83 0
82 -543 544 83 0
-82 -83 0
-82 543 544 0
-82 -543 -544 0
83 545 84 0
83 546 84 0
-83 -84 0
-83 -545 -546 0
84 545 -546 85 0
84 -545 546 85 0
-84 -85 0
-84 545 546 0
-84 -545 -546 0
85 547 86 0
85 548 86 0
-85 -86 0
-85 -547 -548 0
86 547 -548 87 0
86 -547 548 87 0
-86 -87 0
-86 547 548 0
-86 -547 -548 0
87 549 88 0
87 550 88 0
-87 -88 0
-87 -549 -550 0
88 549 -550 89 0
88 -549 550 89 0
-88 -89 0
-88 549 550 0
-88 -549 -550 0
89 551 90 0
89 552 90 0
-89 -90 0
-89 -551 -552 0
90 551 -552 91 0
90 -551 552 91 0
-90 -91 0
-90 551 552 0
-90 -551 -552 0
91 553 92 0
91 554 92 0
-91 -92 0
-91 -553 -554 0
92 553 -554 93 0
92 -553 554 93 0
-92 -93 0
-92 553 554 0
-92 -553 -554 0
93 555 94 0
93 556 94 0
-93 -94 0
-93 -555 -556 0
94 95 -132 0
-94 -95 0
-94 132 0
95 557 96 0
95 558 96 0
-95 -96 0
-95 -557 -558 0
96 557 -558 97 0
96 -557 558 97 0
-96 -97 0
-96 557 558 0
-96 -557 -558 0
97 559 98 0
97 560 98 0
-97 -98 0
-97 -559 -560 0
98 559 -560 99 0
98 -559 560 99 0
-98 -99 0
-98 559 560 0
-98 -559 -560 0
99 561 100 0
99 562 100 0
-99 -100 0
-99 -561 -562 0
100 561 -562 101 0
100 -561 562 101 0
-100 -101 0
-100 561 562 0
-100 -561 -562 0
101 563 102 0
101 564 102 0
-101 -102 0
-101 -563 -564 0
102 563 -564 103 0
102 -563 564 103 0
-102 -103 0
-102 563 564 0
-102 -563 -564 0
103 565 104 0
103 566 104 0
-103 -104 0
-103 -565 -566 0
104 565 -566 105 0
104 -565 566 105 0
-104 -105 0
-104 565 566 0
-104 -565 -566 0
105 567 106 0
105 568 106 0
-105 -106 0
-105 -567 -568 0
106 107 -131 0
-106 -107 0
-106 131 0
107 569 108 0
107 570 108 0
-107 -108 0
-107 -569 -570 0
108 569 -570 109 0
108 -569 570 109 0
-108 -109 0
-108 569 570 0
-108 -569 -570 0
109 571 110 0
109 572 110 0
-109 -110 0
-109 -571 -572 0
110 571 -572 111 0
110 -571 572 111 0
-110 -111 0
-110 571 572 0
-110 -571 -572 0
111 573 112 0
111 574 112 0
-111 -112 0
-111 -573 -574 0
112 573 -574 113 0
112 -573 574 113 0
-112 -113 0
-112 573 574 0
-112 -573 -574 0
113 575 114 0
113 576 114 0
-113 -114 0
-113 -575 -576 0
114 575 -576 115 0
114 -575 576 115 0
-114 -115 0
-114 575 576 0
-114 -575 -576 0
115 577 116 0
115 578 116 0
-115 -116 0
-115 -577 -578 0
116 577 -578 117 0
116 -577 578 117 0
-116 -117 0
-116 577 578 0
-116 -577 -578 0
117 579 118 0
117 580 118 0
-117 -118 0
-117 -579 -580 0
118 579 -580 119 0
118 -579 580 119 0
-118 -119 0
-118 579 580 0
-118 -579 -580 0
119 581 120 0
119 582 120 0
-119 -120 0
-119 -581 -582 0
120 581 -582 121 0
120 -581 582 121 0
-120 -121 0
-120 581 582 0
-120 -581 -582 0
121 583 122 0
121 584 122 0
-121 -122 0
-121 -583 -584 0
122 583 -584 123 0
122 -583 584 123 0
-122 -123 0
-122 583 584 0
-122 -583 -584 0
123 585 124 0
123 586 124 0
-123 -124 0
-123 -585 -586 0
124 585 -586 125 0
124 -585 586 125 0
-124 -125 0
-124 585 586 0
-124 -585 -586 0
125 587 126 0
125 588 126 0
-125 -126 0
-125 -587 -588 0
126 127 -130 0
-126 -127 0
-126 130 0
127 589 128 0
127 590 128 0
-127 -128 0
-127 -589 -590 0
128 -464 -465 -129 0
-128 464 0
-128 465 0
-128 129 0
129 589 -590 0
129 -589 590 0
-129 -589 -590 0
-129 589 590 0
130 587 -588 0
130 -587 588 0
-130 -587 -588 0
-130 587 588 0
131 567 -568 0
131 -567 568 0
-131 -567 -568 0
-131 567 568 0
132 555 -556 0
132 -555 556 0
-132 -555 -556 0
-132 555 556 0
133 535 -536 0
133 -535 536 0
-133 -535 -536 0
-133 535 536 0
134 523 -524 0
134 -523 524 0
-134 -523 -524 0
-134 523 524 0
135 503 -504 0
135 -503 504 0
-135 -503 -504 0
-135 503 504 0
136 491 -492 0
136 -491 492 0
-136 -491 -492 0
-136 491 492 0
137 471 -472 0
137 -471 472 0
-137 -471 -472 0
-137 471 472 0
138 467 -468 0
138 -467 468 0
-138 -467 -468 0
-138 467 468 0
139 -140 -311 0
-139 140 0
-139 311 0
140 -141 -310 0
-140 141 0
-140 310 0
141 -142 -308 0
-141 142 0
-141 308 0
142 -143 -306 0
-142 143 0
-142 306 0
143 -144 -304 0
-143 144 0
-143 304 0
144 -145 -302 0
-144 145 0
-144 302 0
145 -146 -300 0
-145 146 0
-145 300 0
146 -147 -298 0
-146 147 0
-146 298 0
147 -148 -296 0
-147 148 0
-147 296 0
148 -149 -294 0
-148 149 0
-148 294 0
149 -150 -292 0
-149 150 0
-149 292 0
150 -151 -291 0
-150 151 0
-150 291 0
151 -152 -289 0
-151 152 0
-151 289 0
152 -153 -287 0
-152 153 0
-152 287 0
153 -154 -285 0
-153 154 0
-153 285 0
154 -155 -283 0
-154 155 0
-154 283 0
155 -156 -281 0
-155 156 0
-155 281 0
156 -157 -280 0
-156 157 0
-156 280 0
157 -158 -278 0
-157 158 0
-157 278 0
158 -159 -276 0
-158 159 0
-158 276 0
159 -160 -274 0
-159 160 0
-159 274 0
160 -161 -272 0
-160 161 0
-160 272 0
161 -162 -270 0
-161 162 0
-161 270 0
162 -163 -268 0
-162 163 0
-162 268 0
163 -164 -266 0
-163 164 0
-163 266 0
164 -165 -264 0
-164 165 0
-164 264 0
165 -166 -262 0
-165 166 0
-165 262 0
166 -167 -261 0
-166 167 0
-166 261 0
167 -168 -259 0
-167 168 0
-167 259 0
168 -169 -257 0
-168 169 0
-168 257 0
169 -170 -255 0
-169 170 0
-169 255 0
170 -171 -253 0
-170 171 0
-170 253 0
171 -172 -251 0
-171 172 0
-171 251 0
172 -173 -250 0
-172 173 0
-172 250 0
173 -174 -248 0
-173 174 0
-173 248 0
174 -175 -246 0
-174 175 0
-174 246 0
175 -176 -244 0
-175 176 0
-175 244 0
176 -177 -242 0
-176 177 0
-176 242 0
177 -178 -240 0
-177 178 0
-177 240 0
178 -179 -238 0
-178 179 0
-178 238 0
179 -180 -236 0
-179 180 0
-179 236 0
180 -181 -234 0
-180 181 0
-180 234 0
181 -182 -232 0
-181 182 0
-181 232 0
182 -183 -231 0
-182 183 0
-182 231 0
183 -184 -229 0
-183 184 0
-183 229 0
184 -185 -227 0
-184 185 0
-184 227 0
185 -186 -225 0
-185 186 0
-185 225 0
186 -187 -223 0
-186 187 0
-186 223 0
187 -188 -221 0
-187 188 0
-187 221 0
188 -189 -220 0
-188 189 0
-188 220 0
189 -190 -218 0
-189 190 0
-189 218 0
190 -191 -216 0
-190 191 0
-190 216 0
191 -192 -214 0
-191 192 0
-191 214 0
192 -193 -212 0
-192 193 0
-192 212 0
193 -194 -210 0
-193 194 0
-193 210 0
194 -195 -208 0
-194 195 0
-194 208 0
195 -196 -206 0
-195 196 0
-195 206 0
196 -197 -204 0
-196 197 0
-196 204 0
197 -198 -202 0
-197 198 0
-197 202 0
198 -199 -201 0
-198 199 0
-198 201 0
199 -129 -200 0
-199 129 0
-199 200 0
200 464 -465 0
200 -464 465 0
-200 -464 -465 0
-200 464 465 0
201 -127 -130 0
201 127 130 0
-201 127 -130 0
-201 -127 130 0
202 -125 -203 0
202 125 203 0
-202 125 -203 0
-202 -125 203 0
203 585 -586 0
203 -585 586 0
-203 -585 -586 0
-203 585 586 0
204 -123 -205 0
204 123 205 0
-204 123 -205 0
-204 -123 205 0
205 583 -584 0
205 -583 584 0
-205 -583 -584 0
-205 583 584 0
206 -121 -207 0
206 121 207 0
-206 121 -207 0
-206 -121 207 0
207 581 -582 0
207 -581 582 0
-207 -581 -582 0
-207 581 582 0
208 -119 -209 0
208 119 209 0
-208 119 -209 0
-208 -119 209 0
209 579 -580 0
209 -579 580 0
-209 -579 -580 0
-209 579 580 0
210 -117 -211 0
210 117 211 0
-210 117 -211 0
-210 -117 211 0
211 577 -578 0
211 -577 578 0
-211 -577 -578 0
-211 577 578 0
212 -115 -213 0
212 115 213 0
-212 115 -213 0
-212 -115 213 0
213 575 -576 0
213 -575 576 0
-213 -575 -576 0
-213 575 576 0
214 -113 -215 0
214 113 215 0
-214 113 -215 0
-214 -113 215 0
215 573 -574 0
215 -573 574 0
-215 -573 -574 0
-215 573 574 0
216 -111 -217 0
216 111 217 0
-216 111 -217 0
-216 -111 217 0
217 571 -572 0
217 -571 572 0
-217 -571 -572 0
-217 571 572 0
218 -109 -219 0
218 109 219 0
-218 109 -219 0
-218 -109 219 0
219 569 -570 0
219 -569 570 0
-219 -569 -570 0
-219 569 570 0
220 -107 -131 0
220 107 131 0
-220 107 -131 0
-220 -107 131 0
221 -105 -222 0
221 105 222 0
-221 105 -222 0
-221 -105 222 0
222 565 -566 0
222 -565 566 0
-222 -565 -566 0
-222 565 566 0
223 -103 -224 0
223 103 224 0
-223 103 -224 0
-223 -103 224 0
224 563 -564 0
224 -563 564 0
-224 -563 -564 0
-224 563 564 0
225 -101 -226 0
225 101 226 0
-225 101 -226 0
-225 -101 226 0
226 561 -562 0
226 -561 562 0
-226 -561 -562 0
-226 561 562 0
227 -99 -228 0
227 99 228 0
-227 99 -228 0
-227 -99 228 0
228 559 -560 0
228 -559 560 0
-228 -559 -560 0
-228 559 560 0
229 -97 -230 0
229 97 230 0
-229 97 -230 0
-229 -97 230 0
230 557 -558 0
230 -557 558 0
-230 -557 -558 0
-230 557 558 0
231 -95 -132 0
231 95 132 0
-231 95 -132 0
-231 -95 132 0
232 -93 -233 0
232 93 233 0
-232 93 -233 0
-232 -93 233 0
233 553 -554 0
233 -553 554 0
-233 -553 -554 0
-233 553 554 0
234 -91 -235 0
234 91 235 0
-234 91 -235 0
-234 -91 235 0
235 551 -552 0
235 -551 552 0
-235 -551 -552 0
-235 551 552 0
236 -89 -237 0
236 89 237 0
-236 89 -237 0
-236 -89 237 0
237 549 -550 0
237 -549 550 0
-237 -549 -550 0
-237 549 550 0
238 -87 -239 0
238 87 239 0
-238 87 -239 0
-238 -87 239 0
239 547 -548 0
239 -547 548 0
-239 -547 -548 0
-239 547 548 0
240 -85 -241 0
240 85 241 0
-240 85 -241 0
-240 -85 241 0
241 545 -546 0
241 -545 546 0
-241 -545 -546 0
-241 545 546 0
242 -83 -243 0
242 83 243 0
-242 83 -243 0
-242 -83 243 0
243 543 -544 0
243 -543 544 0
-243 -543 -544 0
-243 543 544 0
244 -81 -245 0
244 81 245 0
-244 81 -245 0
-244 -81 245 0
245 541 -542 0
245 -541 542 0
-245 -541 -542 0
-245 541 542 0
246 -79 -247 0
246 79 247 0
-246 79 -247 0
-246 -79 247 0
247 539 -540 0
247 -539 540 0
-247 -539 -540 0
-247 539 540 0
248 -77 -249 0
248 77 249 0
-248 77 -249 0
-248 -77 249 0
249 537 -538 0
249 -537 538 0
-249 -537 -538 0
-249 537 538 0
250 -75 -133 0
250 75 133 0
-250 75 -133 0
-250 -75 133 0
251 -73 -252 0
251 73 252 0
-251 73 -252 0
-251 -73 252 0
252 533 -534 0
252 -533 534 0
-252 -533 -534 0
-252 533 534 0
253 -71 -254 0
253 71 254 0
-253 71 -254 0
-253 -71 254 0
254 531 -532 0
254 -531 532 0
-254 -531 -532 0
-254 531 532 0
255 -69 -256 0
255 69 256 0
-255 69 -256 0
-255 -69 256 0
256 529 -530 0
256 -529 530 0
-256 -529 -530 0
-256 529 530 0
257 -67 -258 0
257 67 258 0
-257 67 -258 0
-257 -67 258 0
258 527 -528 0
258 -527 528 0
-258 -527 -528 0
-258 527 528 0
259 -65 -260 0
259 65 260 0
-259 65 -260 0
-259 -65 260 0
260 525 -526 0
260 -525 526 0
-260 -525 -526 0
-260 525 526 0
261 -63 -134 0
261 63 134 0
-261 63 -134 0
-261 -63 134 0
262 -61 -263 0
262 61 263 0
-262 61 -263 0
-262 -61 263 0
263 521 -522 0
263 -521 522 0
-263 -521 -522 0
-263 521 522 0
264 -59 -265 0
264 59 265 0
-264 59 -265 0
-264 -59 265 0
265 519 -520 0
265 -519 520 0
-265 -519 -520 0
-265 519 520 0
266 -57 -267 0
266 57 267 0
-266 57 -267 0
-266 -57 267 0
267 517 -518 0
267 -517 518 0
-267 -517 -518 0
-267 517 518 0
268 -55 -269 0
268 55 269 0
-268 55 -269 0
-268 -55 269 0
269 515 -516 0
269 -515 516 0
-269 -515 -516 0
-269 515 516 0
270 -53 -271 0
270 53 271 0
-270 53 -271 0
-270 -53 271 0
271 513 -514 0
271 -513 514 0
-271 -513 -514 0
-271 513 514 0
272 -51 -273 0
272 51 273 0
-272 51 -273 0
-272 -51 273 0
273 511 -512 0
273 -511 512 0
-273 -511 -512 0
-273 511 512 0
274 -49 -275 0
274 49 275 0
-274 49 -275 0
-274 -49 275 0
275 509 -510 0
275 -509 510 0
-275 -509 -510 0
-275 509 510 0
276 -47 -277 0
276 47 277 0
-276 47 -277 0
-276 -47 277 0
277 507 -508 0
277 -507 508 0
-277 -507 -508 0
-277 507 508 0
278 -45 -279 0
278 45 279 0
-278 45 -279 0
-278 -45 279 0
279 505 -506 0
279 -505 506 0
-279 -505 -506 0
-279 505 506 0
280 -43 -135 0
280 43 135 0
-280 43 -135 0
-280 -43 135 0
281 -41 -282 0
281 41 282 0
-281 41 -282 0
-281 -41 282 0
282 501 -502 0
282 -501 502 0
-282 -501 -502 0
-282 501 502 0
283 -39 -284 0
283 39 284 0
-283 39 -284 0
-283 -39 284 0
284 499 -500 0
284 -499 500 0
-284 -499 -500 0
-284 499 500 0
285 -37 -286 0
285 37 286 0
-285 37 -286 0
-285 -37 286 0
286 497 -498 0
286 -497 498 0
-286 -497 -498 0
-286 497 498 0
287 -35 -288 0
287 35 288 0
-287 35 -288 0
-287 -35 288 0
288 495 -496 0
288 -495 496 0
-288 -495 -496 0
-288 495 496 0
289 -33 -290 0
289 33 290 0
-289 33 -290 0
-289 -33 290 0
290 493 -494 0
290 -493 494 0
-290 -493 -494 0
-290 493 494 0
291 -31 -136 0
291 31 136 0
-291 31 -136 0
-291 -31 136 0
292 -29 -293 0
292 29 293 0
-292 29 -293 0
-292 -29 293 0
293 489 -490 0
293 -489 490 0
-293 -489 -490 0
-293 489 490 0
294 -27 -295 0
294 27 295 0
-294 27 -295 0
-294 -27 295 0
295 487 -488 0
295 -487 488 0
-295 -487 -488 0
-295 487 488 0
296 -25 -297 0
296 25 297 0
-296 25 -297 0
-296 -25 297 0
297 485 -486 0
297 -485 486 0
-297 -485 -486 0
-297 485 486 0
298 -23 -299 0
298 23 299 0
-298 23 -299 0
-298 -23 299 0
299 483 -484 0
299 -483 484 0
-299 -483 -484 0
-299 483 484 0
300 -21 -301 0
300 21 301 0
-300 21 -301 0
-300 -21 301 0
301 481 -482 0
301 -481 482 0
-301 -481 -482 0
-301 481 482 0
302 -19 -303 0
302 19 303 0
-302 19 -303 0
-302 -19 303 0
303 479 -480 0
303 -479 480 0
-303 -479 -480 0
-303 479 480 0
304 -17 -305 0
304 17 305 0
-304 17 -305 0
-304 -17 305 0
305 477 -478 0
305 -477 478 0
-305 -477 -478 0
-305 477 478 0
306 -15 -307 0
306 15 307 0
-306 15 -307 0
-306 -15 307 0
307 475 -476 0
307 -475 476 0
-307 -475 -476 0
-307 475 476 0
308 -13 -309 0
308 13 309 0
-308 13 -309 0
-308 -13 309 0
309 473 -474 0
309 -473 474 0
-309 -473 -474 0
-309 473 474 0
310 -11 -137 0
310 11 137 0
-310 11 -137 0
-310 -11 137 0
311 -9 -312 0
311 9 312 0
-311 9 -312 0
-311 -9 312 0
312 469 -470 0
312 -469 470 0
-312 -469 -470 0
-312 469 470 0
313 -314 -316 0
313 314 316 0
-313 314 -316 0
-313 -314 316 0
314 467 315 0
314 468 315 0
-314 -315 0
-314 -467 -468 0
315 467 -468 7 0
315 -467 468 7 0
-315 -7 0
-315 467 468 0
-315 -467 -468 0
316 -592 -317 0
316 592 317 0
-316 592 -317 0
-316 -592 317 0
317 466 -591 0
317 -466 591 0
-317 -466 -591 0
-317 466 591 0
318 139 319 320 -322 0
318 -139 -319 320 -322 0
-318 -320 0
-318 139 -319 0
-318 322 0
-318 -139 319 0
319 593 -6 0
319 -593 6 0
-319 -593 -6 0
-319 593 6 0
320 140 -321 0
320 -140 321 0
-320 -140 -321 0
-320 140 321 0
321 594 -311 0
321 -594 311 0
-321 -594 -311 0
-321 594 311 0
322 142 323 325 -326 0
322 -142 323 -325 -326 0
-322 326 0
-322 142 -325 0
-322 -323 0
-322 -142 325 0
323 141 -324 0
323 -141 324 0
-323 -141 -324 0
-323 141 324 0
324 595 -310 0
324 -595 310 0
-324 -595 -310 0
-324 595 310 0
325 596 -308 0
325 -596 308 0
-325 -596 -308 0
-325 596 308 0
326 144 327 329 -330 0
326 -144 327 -329 -330 0
-326 330 0
-326 144 -329 0
-326 -327 0
-326 -144 329 0
327 143 -328 0
327 -143 328 0
-327 -143 -328 0
-327 143 328 0
328 597 -306 0
328 -597 306 0
-328 -597 -306 0
-328 597 306 0
329 598 -304 0
329 -598 304 0
-329 -598 -304 0
-329 598 304 0
330 146 331 333 -334 0
330 -146 331 -333 -334 0
-330 334 0
-330 146 -333 0
-330 -331 0
-330 -146 333 0
331 145 -332 0
331 -145 332 0
-331 -145 -332 0
-331 145 332 0
332 599 -302 0
332 -599 302 0
-332 -599 -302 0
-332 599 302 0
333 600 -300 0
333 -600 300 0
-333 -600 -300 0
-333 600 300 0
334 148 335 337 -338 0
334 -148 335 -337 -338 0
-334 338 0
-334 148 -337 0
-334 -335 0
-334 -148 337 0
335 147 -336 0
335 -147 336 0
-335 -147 -336 0
-335 147 336 0
336 601 -298 0
336 -601 298 0
-336 -601 -298 0
-336 601 298 0
337 602 -296 0
337 -602 296 0
-337 -602 -296 0
-337 602 296 0
338 150 339 341 -342 0
338 -150 339 -341 -342 0
-338 342 0
-338 150 -341 0
-338 -339 0
-338 -150 341 0
339 149 -340 0
339 -149 340 0
-339 -149 -340 0
-339 149 340 0
340 603 -294 0
340 -603 294 0
-340 -603 -294 0
-340 603 294 0
341 604 -292 0
341 -604 292 0
-341 -604 -292 0
-341 604 292 0
342 152 343 345 -346 0
342 -152 343 -345 -346 0
-342 346 0
-342 152 -345 0
-342 -343 0
-342 -152 345 0
343 151 -344 0
343 -151 344 0
-343 -151 -344 0
-343 151 344 0
344 605 -291 0
344 -605 291 0
-344 -605 -291 0
-344 605 291 0
345 606 -289 0
345 -606 289 0
-345 -606 -289 0
-345 606 289 0
346 154 347 349 -350 0
346 -154 347 -349 -350 0
-346 350 0
-346 154 -349 0
-346 -347 0
-346 -154 349 0
347 153 -348 0
347 -153 348 0
-347 -153 -348 0
-347 153 348 0
348 607 -287 0
348 -607 287 0
-348 -607 -287 0
-348 607 287 0
349 608 -285 0
349 -608 285 0
-349 -608 -285 0
-349 608 285 0
350 156 351 353 -354 0
350 -156 351 -353 -354 0
-350 354 0
-350 156 -353 0
-350 -351 0
-350 -156 353 0
351 155 -352 0
351 -155 352 0
-351 -155 -352 0
-351 155 352 0
352 609 -283 0
352 -609 283 0
-352 -609 -283 0
-352 609 283 0
353 610 -281 0
353 -610 281 0
-353 -610 -281 0
-353 610 281 0
354 158 355 357 -358 0
354 -158 355 -357 -358 0
-354 358 0
-354 158 -357 0
-354 -355 0
-354 -158 357 0
355 157 -356 0
355 -157 356 0
-355 -157 -356 0
-355 157 356 0
356 611 -280 0
356 -611 280 0
-356 -611 -280 0
-356 611 280 0
357 612 -278 0
357 -612 278 0
-357 -612 -278 0
-357 612 278 0
358 160 359 361 -362 0
358 -160 359 -361 -362 0
-358 362 0
-358 160 -361 0
-358 -359 0
-358 -160 361 0
359 159 -360 0
359 -159 360 0
-359 -159 -360 0
-359 159 360 0
360 613 -276 0
360 -613 276 0
-360 -613 -276 0
-360 613 276 0
361 614 -274 0
361 -614 274 0
-361 -614 -274 0
-361 614 274 0
362 162 363 365 -366 0
362 -162 363 -365 -366 0
-362 366 0
-362 162 -365 0
-362 -363 0
-362 -162 365 0
363 161 -364 0
363 -161 364 0
-363 -161 -364 0
-363 161 364 0
364 615 -272 0
364 -615 272 0
-364 -615 -272 0
-364 615 272 0
365 616 -270 0
365 -616 270 0
-365 -616 -270 0
-365 616 270 0
366 164 367 369 -370 0
366 -164 367 -369 -370 0
-366 370 0
-366 164 -369 0
-366 -367 0
-366 -164 369 0
367 163 -368 0
367 -163 368 0
-367 -163 -368 0
-367 163 368 0
368 617 -268 0
368 -617 268 0
-368 -617 -268 0
-368 617 268 0
369 618 -266 0
369 -618 266 0
-369 -618 -266 0
-369 618 266 0
370 166 371 373 -374 0
370 -166 371 -373 -374 0
-370 374 0
-370 166 -373 0
-370 -371 0
-370 -166 373 0
371 165 -372 0
371 -165 372 0
-371 -165 -372 0
-371 165 372 0
372 619 -264 0
372 -619 264 0
-372 -619 -264 0
-372 619 264 0
373 620 -262 0
373 -620 262 0
-373 -620 -262 0
-373 620 262 0
374 168 375 377 -378 0
374 -168 375 -377 -378 0
-374 378 0
-374 168 -377 0
-374 -375 0
-374 -168 377 0
375 167 -376 0
375 -167 376 0
-375 -167 -376 0
-375 167 376 0
376 621 -261 0
376 -621 261 0
-376 -621 -261 0
-376 621 261 0
377 622 -259 0
377 -622 259 0
-377 -622 -259 0
-377 622 259 0
378 170 379 381 -382 0
378 -170 379 -381 -382 0
-378 382 0
-378 170 -381 0
-378 -379 0
-378 -170 381 0
379 169 -380 0
379 -169 380 0
-379 -169 -380 0
-379 169 380 0
380 623 -257 0
380 -623 257 0
-380 -623 -257 0
-380 623 257 0
381 624 -255 0
381 -624 255 0
-381 -624 -255 0
-381 624 255 0
382 172 383 385 -386 0
382 -172 383 -385 -386 0
-382 386 0
-382 172 -385 0
-382 -383 0
-382 -172 385 0
383 171 -384 0
383 -171 384 0
-383 -171 -384 0
-383 171 384 0
384 625 -253 0
384 -625 253 0
-384 -625 -253 0
-384 625 253 0
385 626 -251 0
385 -626 251 0
-385 -626 -251 0
-385 626 251 0
386 174 387 389 -390 0
386 -174 387 -389 -390 0
-386 390 0
-386 174 -389 0
-386 -387 0
-386 -174 389 0
387 173 -388 0
387 -173 388 0
-387 -173 -388 0
-387 173 388 0
388 627 -250 0
388 -627 250 0
-388 -627 -250 0
-388 627 250 0
389 628 -248 0
389 -628 248 0
-389 -628 -248 0
-389 628 248 0
390 176 391 393 -394 0
390 -176 391 -393 -394 0
-390 394 0
-390 176 -393 0
-390 -391 0
-390 -176 393 0
391 175 -392 0
391 -175 392 0
-391 -175 -392 0
-391 175 392 0
392 629 -246 0
392 -629 246 0
-392 -629 -246 0
-392 629 246 0
393 630 -244 0
393 -630 244 0
-393 -630 -244 0
-393 630 244 0
394 178 395 397 -398 0
394 -178 395 -397 -398 0
-394 398 0
-394 178 -397 0
-394 -395 0
-394 -178 397 0
395 177 -396 0
395 -177 396 0
-395 -177 -396 0
-395 177 396 0
396 631 -242 0
396 -631 242 0
-396 -631 -242 0
-396 631 242 0
397 632 -240 0
397 -632 240 0
-397 -632 -240 0
-397 632 240 0
398 180 399 401 -402 0
398 -180 399 -401 -402 0
-398 402 0
-398 180 -401 0
-398 -399 0
-398 -180 401 0
399 179 -400 0
399 -179 400 0
-399 -179 -400 0
-399 179 400 0
400 633 -238 0
400 -633 238 0
-400 -633 -238 0
-400 633 238 0
401 634 -236 0
401 -634 236 0
-401 -634 -236 0
-401 634 236 0
402 182 403 405 -406 0
402 -182 403 -405 -406 0
-402 406 0
-402 182 -405 0
-402 -403 0
-402 -182 405 0
403 181 -404 0
403 -181 404 0
-403 -181 -404 0
-403 181 404 0
404 635 -234 0
404 -635 234 0
-404 -635 -234 0
-404 635 234 0
405 636 -232 0
405 -636 232 0
-405 -636 -232 0
-405 636 232 0
406 184 407 409 -410 0
406 -184 407 -409 -410 0
-406 410 0
-406 184 -409 0
-406 -407 0
-406 -184 409 0
407 183 -408 0
407 -183 408 0
-407 -183 -408 0
-407 183 408 0
408 637 -231 0
408 -637 231 0
-408 -637 -231 0
-408 637 231 0
409 638 -229 0
409 -638 229 0
-409 -638 -229 0
-409 638 229 0
410 186 411 413 -414 0
410 -186 411 -413 -414 0
-410 414 0
-410 186 -413 0
-410 -411 0
-410 -186 413 0
411 185 -412 0
411 -185 412 0
-411 -185 -412 0
-411 185 412 0
412 639 -227 0
412 -639 227 0
-412 -639 -227 0
-412 639 227 0
413 640 -225 0
413 -640 225 0
-413 -640 -225 0
-413 640 225 0
414 188 415 417 -418 0
414 -188 415 -417 -418 0
-414 418 0
-414 188 -417 0
-414 -415 0
-414 -188 417 0
415 187 -416 0
415 -187 416 0
-415 -187 -416 0
-415 187 416 0
416 641 -223 0
416 -641 223 0
-416 -641 -223 0
-416 641 223 0
417 642 -221 0
417 -642 221 0
-417 -642 -221 0
-417 642 221 0
418 190 419 421 -422 0
418 -190 419 -421 -422 0
-418 422 0
-418 190 -421 0
-418 -419 0
-418 -190 421 0
419 189 -420 0
419 -189 420 0
-419 -189 -420 0
-419 189 420 0
420 643 -220 0
420 -643 220 0
-420 -643 -220 0
-420 643 220 0
421 644 -218 0
421 -644 218 0
-421 -644 -218 0
-421 644 218 0
422 192 423 425 -426 0
422 -192 423 -425 -426 0
-422 426 0
-422 192 -425 0
-422 -423 0
-422 -192 425 0
423 191 -424 0
423 -191 424 0
-423 -191 -424 0
-423 191 424 0
424 645 -216 0
424 -645 216 0
-424 -645 -216 0
-424 645 216 0
425 646 -214 0
425 -646 214 0
-425 -646 -214 0
-425 646 214 0
426 194 427 429 -430 0
426 -194 427 -429 -430 0
-426 430 0
-426 194 -429 0
-426 -427 0
-426 -194 429 0
427 193 -428 0
427 -193 428 0
-427 -193 -428 0
-427 193 428 0
428 647 -212 0
428 -647 212 0
-428 -647 -212 0
-428 647 212 0
429 648 -210 0
429 -648 210 0
-429 -648 -210 0
-429 648 210 0
430 196 431 433 -434 0
430 -196 431 -433 -434 0
-430 434 0
-430 196 -433 0
-430 -431 0
-430 -196 433 0
431 195 -432 0
431 -195 432 0
-431 -195 -432 0
-431 195 432 0
432 649 -208 0
432 -649 208 0
-432 -649 -208 0
-432 649 208 0
433 650 -206 0
433 -650 206 0
-433 -650 -206 0
-433 650 206 0
434 198 435 437 -438 0
434 -198 435 -437 -438 0
-434 438 0
-434 198 -437 0
-434 -435 0
-434 -198 437 0
435 197 -436 0
435 -197 436 0
-435 -197 -436 0
-435 197 436 0
436 651 -204 0
436 -651 204 0
-436 -651 -204 0
-436 651 204 0
437 652 -202 0
437 -652 202 0
-437 -652 -202 0
-437 652 202 0
438 -129 -200 -439 440 0
438 129 -200 439 440 0
-438 -440 0
-438 -129 439 0
-438 200 0
-438 129 -439 0
439 653 -201 0
439 -653 201 0
-439 -653 -201 0
-439 653 201 0
440 -654 -441 0
440 654 441 0
-440 654 -441 0
-440 -654 441 0
441 442 -129 0
441 -442 129 0
-441 -442 -129 0
-441 442 129 0
442 -464 -465 0
-442 464 0
-442 465 0
443 -313 319 321 -444 0
-443 444 0
-443 -321 0
-443 313 0
-443 -319 0
444 324 325 328 -445 0
-444 445 0
-444 -328 0
-444 -324 0
-444 -325 0
445 329 332 333 -446 0
-445 446 0
-445 -333 0
-445 -329 0
-445 -332 0
446 336 337 340 -447 0
-446 447 0
-446 -340 0
-446 -336 0
-446 -337 0
447 341 344 345 -448 0
-447 448 0
-447 -345 0
-447 -341 0
-447 -344 0
448 348 349 352 -449 0
-448 449 0
-448 -352 0
-448 -348 0
-448 -349 0
449 353 356 357 -450 0
-449 450 0
-449 -357 0
-449 -353 0
-449 -356 0
450 360 361 364 -451 0
-450 451 0
-450 -364 0
-450 -360 0
-450 -361 0
451 365 368 369 -452 0
-451 452 0
-451 -369 0
-451 -365 0
-451 -368 0
452 372 373 376 -453 0
-452 453 0
-452 -376 0
-452 -372 0
-452 -373 0
453 377 380 381 -454 0
-453 454 0
-453 -381 0
-453 -377 0
-453 -380 0
454 384 385 388 -455 0
-454 455 0
-454 -388 0
-454 -384 0
-454 -385 0
455 389 392 393 -456 0
-455 456 0
-455 -393 0
-455 -389 0
-455 -392 0
456 396 397 400 -457 0
-456 457 0
-456 -400 0
-456 -396 0
-456 -397 0
457 401 404 405 -458 0
-457 458 0
-457 -405 0
-457 -401 0
-457 -404 0
458 408 409 412 -459 0
-458 459 0
-458 -412 0
-458 -408 0
-458 -409 0
459 413 416 417 -460 0
-459 460 0
-459 -417 0
-459 -413 0
-459 -416 0
460 420 421 424 -461 0
-460 461 0
-460 -424 0
-460 -420 0
-460 -421 0
461 425 428 429 -462 0
-461 462 0
-461 -429 0
-461 -425 0
-461 -428 0
462 432 433 436 -463 0
-462 463 0
-462 -436 0
-462 -432 0
-462 -433 0
463 200 437 439 -440 0
-463 440 0
-463 -439 0
-463 -200 0
-463 -437 0
655 0
2 4 0
-2 -4 0
3 4 0
-3 -4 0
3 0

